
Gurobi 9.1.2 (win64) logging started Fri Dec 10 13:09:31 2021

Gurobi Optimizer version 9.1.2 build v9.1.2rc0 (win64)
Thread count: 8 physical cores, 8 logical processors, using up to 8 threads
Optimize a model with 1 rows, 465 columns and 464 nonzeros
Model fingerprint: 0x89ab6cbc
Variable types: 1 continuous, 464 integer (464 binary)
Coefficient statistics:
  Matrix range     [1e+00, 1e+01]
  Objective range  [1e+00, 1e+00]
  Bounds range     [1e+02, 1e+02]
  RHS range        [1e+01, 1e+01]
Presolve time: 0.00s
Presolved: 1 rows, 465 columns, 464 nonzeros
Variable types: 1 continuous, 464 integer (464 binary)

Root simplex log...

Iteration    Objective       Primal Inf.    Dual Inf.      Time
       0   -1.4382784e+02   1.615018e-01   0.000000e+00     14s
       8   -1.1697548e+02   0.000000e+00   0.000000e+00     14s

Root relaxation: objective -1.169755e+02, 8 iterations, 0.00 seconds

    Nodes    |    Current Node    |     Objective Bounds      |     Work
 Expl Unexpl |  Obj  Depth IntInf | Incumbent    BestBd   Gap | It/Node Time

     0     0 -116.97548    0    1          - -116.97548      -     -   14s
H    0     0                       0.8994771 -116.97548      -     -   14s
     0     0  -69.87473    0    2    0.89948  -69.87473  7868%     -   14s
     0     0  -69.87473    0    2    0.89948  -69.87473  7868%     -   15s
     0     0  -57.03380    0   10    0.89948  -57.03380  6441%     -   16s
H    0     0                       0.8610541  -57.03380  6724%     -   16s
     0     0  -55.73656    0    7    0.86105  -55.73656  6573%     -   16s
     0     0  -54.85945    0    8    0.86105  -54.85945  6471%     -   17s
     0     0  -50.92805    0    8    0.86105  -50.92805  6015%     -   17s
     0     0  -50.30247    0   10    0.86105  -50.30247  5942%     -   17s
     0     2  -50.30247    0   10    0.86105  -50.30247  5942%     -   17s

Cutting planes:
  Cover: 1
  MIR: 16
  Lazy constraints: 33

Explored 307 nodes (1473 simplex iterations) in 17.82 seconds
Thread count was 8 (of 8 available processors)

Solution count 2: 0.861054 0.899477 

Optimal solution found (tolerance 1.00e-04)
Best objective 8.610540872338e-01, best bound 8.610540872338e-01, gap 0.0000%

User-callback calls 784, time in user-callback 21.15 sec
